(set-logic ALL)
(declare-fun var0 () String)
(assert (str.in_re var0 (re.++ (re.* (re.union (str.to_re "00") (str.to_re "111"))) (re.++ (re.union (re.union (str.to_re "22") (str.to_re "33")) (re.union (str.to_re "444") (str.to_re "55"))) (re.++ (re.* (re.+ (str.to_re "666"))) (re.++ (re.* (re.+ (str.to_re "7"))) (re.++ (re.union (re.+ (str.to_re "8")) (re.+ (str.to_re "999"))) (re.++ (re.+ (re.* (str.to_re "aa"))) (re.++ (re.union (re.* (str.to_re "bb")) (re.* (str.to_re "cc"))) (re.++ (re.+ (re.* (str.to_re "dd"))) (re.++ (re.union (re.* (str.to_re "ee")) (re.* (str.to_re "ff"))) (re.++ (re.+ (re.+ (str.to_re "ggg"))) (re.++ (re.union (re.+ (str.to_re "hhh")) (re.+ (str.to_re "i"))) (re.++ (re.+ (re.* (str.to_re "jjj"))) (re.++ (re.union (re.* (str.to_re "kk")) (re.* (str.to_re "lll"))) (re.++ (re.+ (re.* (str.to_re "m"))) (re.++ (re.+ (re.union (str.to_re "nn") (str.to_re "o"))) (re.++ (re.+ (re.+ (str.to_re "ppp"))) (re.++ (re.union (re.+ (str.to_re "qq")) (re.+ (str.to_re "rrr"))) (re.++ (re.* (re.+ (str.to_re "ss"))) (re.++ (re.* (re.+ (str.to_re "t"))) (re.++ (re.+ (re.union (str.to_re "uu") (str.to_re "vvv"))) (re.++ (re.+ (re.union (str.to_re "www") (str.to_re "x"))) (re.++ (re.union (re.union (str.to_re "y") (str.to_re "z")) (re.union (str.to_re "AAA") (str.to_re "B"))) (re.++ (re.+ (re.+ (str.to_re "CCC"))) (re.++ (re.+ (re.union (str.to_re "D") (str.to_re "EEE"))) (re.++ (re.+ (re.+ (str.to_re "F"))) (re.++ (re.union (re.* (str.to_re "G")) (re.* (str.to_re "HHH"))) (re.++ (re.+ (re.union (str.to_re "III") (str.to_re "JJJ"))) (re.++ (re.union (re.* (str.to_re "K")) (re.* (str.to_re "LL"))) (re.++ (re.* (re.* (str.to_re "MM"))) (re.++ (re.+ (re.union (str.to_re "NN") (str.to_re "OOO"))) (re.++ (re.union (re.* (str.to_re "P")) (re.* (str.to_re "QQQ"))) (re.++ (re.union (re.union (str.to_re "RRR") (str.to_re "S")) (re.union (str.to_re "T") (str.to_re "U"))) (re.++ (re.union (re.union (str.to_re "VVV") (str.to_re "WWW")) (re.union (str.to_re "XXX") (str.to_re "YYY"))) (re.++ (re.* (re.union (str.to_re "ZZZ") (str.to_re "!"))) (re.++ (re.* (re.union (str.to_re """") (str.to_re "###"))) (re.++ (re.* (re.union (str.to_re "$$") (str.to_re "%%"))) (re.++ (re.union (re.+ (str.to_re "&&&")) (re.+ (str.to_re "'"))) (re.++ (re.union (re.+ (str.to_re "(")) (re.+ (str.to_re ")))"))) (re.++ (re.+ (re.* (str.to_re "*"))) (re.++ (re.union (re.+ (str.to_re "+++")) (re.+ (str.to_re ","))) (re.++ (re.union (re.+ (str.to_re "---")) (re.+ (str.to_re ".."))) (re.++ (re.union (re.* (str.to_re "//")) (re.* (str.to_re ":::"))) (re.++ (re.+ (re.* (str.to_re ";;;"))) (re.++ (re.* (re.+ (str.to_re "<<"))) (re.++ (re.union (re.union (str.to_re "==") (str.to_re ">>>")) (re.union (str.to_re "?") (str.to_re "@"))) (re.++ (re.* (re.union (str.to_re "[[") (str.to_re "\\"))) (re.++ (re.* (re.union (str.to_re "]") (str.to_re "^"))) (re.++ (re.* (re.union (str.to_re "__") (str.to_re "```"))) (re.++ (re.* (re.+ (str.to_re "{{{"))) (re.++ (re.union (re.* (str.to_re "|")) (re.* (str.to_re "}}"))) (re.++ (re.+ (re.* (str.to_re "~"))) (re.++ (re.union (re.* (str.to_re "0")) (re.* (str.to_re "11"))) (re.++ (re.* (re.* (str.to_re "222"))) (re.++ (re.union (re.* (str.to_re "3")) (re.* (str.to_re "44"))) (re.++ (re.+ (re.union (str.to_re "5") (str.to_re "6"))) (re.++ (re.* (re.union (str.to_re "7") (str.to_re "88"))) (re.++ (re.union (re.* (str.to_re "999")) (re.* (str.to_re "aaa"))) (re.++ (re.+ (re.* (str.to_re "bbb"))) (re.++ (re.* (re.union (str.to_re "ccc") (str.to_re "dd"))) (re.++ (re.* (re.* (str.to_re "ee"))) (re.++ (re.union (re.* (str.to_re "f")) (re.* (str.to_re "ggg"))) (re.++ (re.union (re.* (str.to_re "hh")) (re.* (str.to_re "iii"))) (re.++ (re.union (re.union (str.to_re "jj") (str.to_re "k")) (re.union (str.to_re "ll") (str.to_re "mm"))) (re.++ (re.union (re.union (str.to_re "nn") (str.to_re "ooo")) (re.union (str.to_re "pp") (str.to_re "qqq"))) (re.++ (re.union (re.* (str.to_re "rr")) (re.* (str.to_re "s"))) (re.++ (re.union (re.union (str.to_re "ttt") (str.to_re "u")) (re.union (str.to_re "v") (str.to_re "www"))) (re.++ (re.* (re.+ (str.to_re "xx"))) (re.++ (re.+ (re.+ (str.to_re "y"))) (re.++ (re.* (re.+ (str.to_re "z"))) (re.++ (re.* (re.* (str.to_re "AA"))) (re.++ (re.* (re.+ (str.to_re "B"))) (re.++ (re.union (re.union (str.to_re "C") (str.to_re "DD")) (re.union (str.to_re "EEE") (str.to_re "F"))) (re.++ (re.+ (re.* (str.to_re "GGG"))) (re.++ (re.* (re.+ (str.to_re "HHH"))) (re.++ (re.union (re.+ (str.to_re "I")) (re.+ (str.to_re "J"))) (re.++ (re.+ (re.* (str.to_re "KK"))) (re.++ (re.* (re.union (str.to_re "LL") (str.to_re "M"))) (re.++ (re.union (re.* (str.to_re "NN")) (re.* (str.to_re "O"))) (re.++ (re.* (re.union (str.to_re "P") (str.to_re "QQ"))) (re.++ (re.union (re.* (str.to_re "R")) (re.* (str.to_re "SS"))) (re.++ (re.* (re.* (str.to_re "T"))) (re.++ (re.+ (re.+ (str.to_re "U"))) (re.++ (re.union (re.union (str.to_re "VV") (str.to_re "WWW")) (re.union (str.to_re "XXX") (str.to_re "YY"))) (re.++ (re.* (re.union (str.to_re "ZZ") (str.to_re "!!!"))) (re.++ (re.union (re.+ (str.to_re """""""")) (re.+ (str.to_re "#"))) (re.++ (re.+ (re.union (str.to_re "$") (str.to_re "%%"))) (re.++ (re.+ (re.union (str.to_re "&&") (str.to_re "'''"))) (re.++ (re.* (re.* (str.to_re "((("))) (re.++ (re.* (re.union (str.to_re ")") (str.to_re "*"))) (re.++ (re.+ (re.* (str.to_re "+++"))) (re.++ (re.union (re.+ (str.to_re ",")) (re.+ (str.to_re "--"))) (re.++ (re.union (re.* (str.to_re ".")) (re.* (str.to_re "//"))) (re.++ (re.union (re.+ (str.to_re "::")) (re.+ (str.to_re ";;;"))) (re.++ (re.+ (re.+ (str.to_re "<<<"))) (re.++ (re.union (re.* (str.to_re "=")) (re.* (str.to_re ">"))) (re.++ (re.union (re.* (str.to_re "?")) (re.* (str.to_re "@@"))) (re.++ (re.union (re.union (str.to_re "[[") (str.to_re "\\\\\\")) (re.union (str.to_re "]") (str.to_re "^^^"))) (re.++ (re.* (re.+ (str.to_re "__"))) (re.++ (re.union (re.+ (str.to_re "``")) (re.+ (str.to_re "{{{"))) (re.++ (re.+ (re.+ (str.to_re "|"))) (re.++ (re.+ (re.union (str.to_re "}}}") (str.to_re "~"))) (re.++ (re.union (re.* (str.to_re "0")) (re.* (str.to_re "111"))) (re.++ (re.* (re.union (str.to_re "222") (str.to_re "3"))) (re.++ (re.union (re.* (str.to_re "444")) (re.* (str.to_re "55"))) (re.++ (re.union (re.+ (str.to_re "666")) (re.+ (str.to_re "777"))) (re.union (re.union (str.to_re "88") (str.to_re "9")) (re.union (str.to_re "a") (str.to_re "bbb"))))))))))))))))))))))))))))))))))))))))))))))))))))))))))))))))))))))))))))))))))))))))))))))))))))))))))))))
(check-sat)